Running for instance ./models/c107.txt
Generating routes...
Execution time:  7.517283  seconds
Academic license - for non-commercial use only
Warning: constraint name "Cliente esta na rota x1" has a space
Optimize a model with 26 rows, 10000 columns and 59093 nonzeros
Variable types: 0 continuous, 10000 integer (0 binary)
Coefficient statistics:
  Matrix range     [1e+00, 1e+00]
  Objective range  [2e+01, 2e+02]
  Bounds range     [1e+00, 1e+00]
  RHS range        [1e+00, 2e+01]
Found heuristic solution: objective 607.0881583
Presolve removed 1 rows and 1654 columns
Presolve time: 0.06s
Presolved: 25 rows, 8346 columns, 41402 nonzeros
Variable types: 0 continuous, 8346 integer (8346 binary)

Root relaxation: objective 2.547548e+02, 90 iterations, 0.01 seconds

    Nodes    |    Current Node    |     Objective Bounds      |     Work
 Expl Unexpl |  Obj  Depth IntInf | Incumbent    BestBd   Gap | It/Node Time

     0     0  254.75482    0   22  607.08816  254.75482  58.0%     -    0s
H    0     0                     343.5787082  254.75482  25.9%     -    0s
     0     0  254.75482    0   22  343.57871  254.75482  25.9%     -    0s
H    0     0                     305.7062395  254.75482  16.7%     -    0s
     0     0  254.75482    0   22  305.70624  254.75482  16.7%     -    0s
     0     0  254.75482    0   22  305.70624  254.75482  16.7%     -    0s
     0     2  254.75482    0   22  305.70624  254.75482  16.7%     -    0s
*  117    33               5     300.7075033  284.84291  5.28%   6.5    0s
*  124    36              22     299.7369985  284.84291  4.97%   6.6    0s
H  166    25                     294.5489262  288.72257  1.98%   6.3    0s
*  197     4               7     293.3644126  289.04711  1.47%   6.2    0s
*  229     0              10     292.3956448  291.66731  0.25%   6.1    0s

Explored 232 nodes (1577 simplex iterations) in 0.46 seconds
Thread count was 8 (of 8 available processors)

Solution count 8: 292.396 293.364 294.549 ... 607.088

Optimal solution found (tolerance 1.00e-04)
Best objective 2.923956448475e+02, best bound 2.923956448475e+02, gap 0.0000%

Routes:
20 24 25 23 22 21 1
13 17 18 19 16 14 12
7 10 15 11
3 5 8 9 6 4 2

Distance: 292.395644847
Execution time:  8.829178  seconds
